Results/Experiment 1 Results/New Benchmark/RES_60/output_p1_0.00_p2_0.00_n_60_03.txt
solutions: 373248 nodes: 678154  modelTime: 108  solveTime: 2537  totalTime: 2652  modelSize: 7853  readTime: 7 matchingSize: 30
