Results/Experiment 2 Results/New Benchmark/output_p1_0.00_p2_0.00_n_60_03.lp
clingo version 5.4.0
Reading from tempSRTISolver.lp ...
Solving...
Answer: 1
matched(6,2) matched(1,3) matched(8,4) matched(7,5) matched(2,6) matched(5,7) matched(4,8) matched(9,10) matched(12,11) matched(11,12) matched(10,9) matched(13,14) matched(20,15) matched(19,16) matched(18,17) matched(17,18) matched(16,19) matched(15,20) matched(14,13) matched(26,22) matched(21,23) matched(28,24) matched(27,25) matched(22,26) matched(25,27) matched(24,28) matched(23,21) matched(29,30) matched(32,31) matched(31,32) matched(30,29) matched(33,34) matched(38,35) matched(39,36) matched(40,37) matched(35,38) matched(36,39) matched(37,40) matched(34,33) matched(41,42) matched(46,43) matched(47,44) matched(48,45) matched(43,46) matched(44,47) matched(45,48) matched(42,41) matched(52,50) matched(49,51) matched(50,52) matched(51,49) matched(59,54) matched(60,55) matched(53,56) matched(58,57) matched(57,58) matched(54,59) matched(55,60) matched(56,53) matched(3,1)
Optimization: 756
Answer: 2
matched(6,2) matched(1,3) matched(8,4) matched(7,5) matched(2,6) matched(5,7) matched(4,8) matched(9,10) matched(12,11) matched(11,12) matched(10,9) matched(13,14) matched(20,15) matched(19,16) matched(18,17) matched(17,18) matched(16,19) matched(15,20) matched(14,13) matched(26,22) matched(21,23) matched(28,24) matched(27,25) matched(22,26) matched(25,27) matched(24,28) matched(23,21) matched(29,30) matched(32,31) matched(31,32) matched(30,29) matched(33,34) matched(38,35) matched(39,36) matched(40,37) matched(35,38) matched(36,39) matched(37,40) matched(34,33) matched(47,42) matched(46,43) matched(41,44) matched(48,45) matched(43,46) matched(42,47) matched(45,48) matched(44,41) matched(52,50) matched(49,51) matched(50,52) matched(51,49) matched(59,54) matched(60,55) matched(53,56) matched(58,57) matched(57,58) matched(54,59) matched(55,60) matched(56,53) matched(3,1)
Optimization: 738
Answer: 3
matched(6,2) matched(1,3) matched(8,4) matched(7,5) matched(2,6) matched(5,7) matched(4,8) matched(9,10) matched(12,11) matched(11,12) matched(10,9) matched(13,14) matched(20,15) matched(19,16) matched(18,17) matched(17,18) matched(16,19) matched(15,20) matched(14,13) matched(26,22) matched(21,23) matched(28,24) matched(27,25) matched(22,26) matched(25,27) matched(24,28) matched(23,21) matched(29,30) matched(32,31) matched(31,32) matched(30,29) matched(33,34) matched(38,35) matched(39,36) matched(40,37) matched(35,38) matched(36,39) matched(37,40) matched(34,33) matched(47,42) matched(48,43) matched(41,44) matched(46,45) matched(45,46) matched(42,47) matched(43,48) matched(44,41) matched(52,50) matched(49,51) matched(50,52) matched(51,49) matched(59,54) matched(58,55) matched(53,56) matched(60,57) matched(55,58) matched(54,59) matched(57,60) matched(56,53) matched(3,1)
Optimization: 737
Answer: 4
matched(6,2) matched(1,3) matched(8,4) matched(7,5) matched(2,6) matched(5,7) matched(4,8) matched(9,10) matched(12,11) matched(11,12) matched(10,9) matched(13,14) matched(20,15) matched(19,16) matched(18,17) matched(17,18) matched(16,19) matched(15,20) matched(14,13) matched(26,22) matched(21,23) matched(28,24) matched(27,25) matched(22,26) matched(25,27) matched(24,28) matched(23,21) matched(29,30) matched(32,31) matched(31,32) matched(30,29) matched(33,34) matched(40,35) matched(39,36) matched(38,37) matched(37,38) matched(36,39) matched(35,40) matched(34,33) matched(47,42) matched(46,43) matched(41,44) matched(48,45) matched(43,46) matched(42,47) matched(45,48) matched(44,41) matched(52,50) matched(49,51) matched(50,52) matched(51,49) matched(59,54) matched(58,55) matched(53,56) matched(60,57) matched(55,58) matched(54,59) matched(57,60) matched(56,53) matched(3,1)
Optimization: 728
Answer: 5
matched(6,2) matched(1,3) matched(8,4) matched(7,5) matched(2,6) matched(5,7) matched(4,8) matched(9,10) matched(12,11) matched(11,12) matched(10,9) matched(13,14) matched(20,15) matched(19,16) matched(18,17) matched(17,18) matched(16,19) matched(15,20) matched(14,13) matched(26,22) matched(21,23) matched(28,24) matched(27,25) matched(22,26) matched(25,27) matched(24,28) matched(23,21) matched(29,30) matched(32,31) matched(31,32) matched(30,29) matched(33,34) matched(38,35) matched(39,36) matched(40,37) matched(35,38) matched(36,39) matched(37,40) matched(34,33) matched(47,42) matched(46,43) matched(41,44) matched(48,45) matched(43,46) matched(42,47) matched(45,48) matched(44,41) matched(52,50) matched(49,51) matched(50,52) matched(51,49) matched(59,54) matched(58,55) matched(53,56) matched(60,57) matched(55,58) matched(54,59) matched(57,60) matched(56,53) matched(3,1)
Optimization: 721
Answer: 6
matched(6,2) matched(1,3) matched(8,4) matched(7,5) matched(2,6) matched(5,7) matched(4,8) matched(9,10) matched(12,11) matched(11,12) matched(10,9) matched(13,14) matched(20,15) matched(19,16) matched(18,17) matched(17,18) matched(16,19) matched(15,20) matched(14,13) matched(26,22) matched(21,23) matched(28,24) matched(27,25) matched(22,26) matched(25,27) matched(24,28) matched(23,21) matched(29,30) matched(32,31) matched(31,32) matched(30,29) matched(39,34) matched(40,35) matched(33,36) matched(38,37) matched(37,38) matched(34,39) matched(35,40) matched(36,33) matched(47,42) matched(46,43) matched(41,44) matched(48,45) matched(43,46) matched(42,47) matched(45,48) matched(44,41) matched(52,50) matched(49,51) matched(50,52) matched(51,49) matched(59,54) matched(58,55) matched(53,56) matched(60,57) matched(55,58) matched(54,59) matched(57,60) matched(56,53) matched(3,1)
Optimization: 715
Answer: 7
matched(6,2) matched(1,3) matched(8,4) matched(7,5) matched(2,6) matched(5,7) matched(4,8) matched(9,10) matched(12,11) matched(11,12) matched(10,9) matched(13,14) matched(20,15) matched(19,16) matched(18,17) matched(17,18) matched(16,19) matched(15,20) matched(14,13) matched(26,22) matched(21,23) matched(28,24) matched(27,25) matched(22,26) matched(25,27) matched(24,28) matched(23,21) matched(29,30) matched(32,31) matched(31,32) matched(30,29) matched(39,34) matched(38,35) matched(33,36) matched(40,37) matched(35,38) matched(34,39) matched(37,40) matched(36,33) matched(47,42) matched(46,43) matched(41,44) matched(48,45) matched(43,46) matched(42,47) matched(45,48) matched(44,41) matched(52,50) matched(49,51) matched(50,52) matched(51,49) matched(59,54) matched(58,55) matched(53,56) matched(60,57) matched(55,58) matched(54,59) matched(57,60) matched(56,53) matched(3,1)
Optimization: 708
Answer: 8
matched(8,2) matched(6,3) matched(1,4) matched(7,5) matched(3,6) matched(5,7) matched(2,8) matched(9,10) matched(12,11) matched(11,12) matched(10,9) matched(13,14) matched(20,15) matched(19,16) matched(18,17) matched(17,18) matched(16,19) matched(15,20) matched(14,13) matched(26,22) matched(21,23) matched(28,24) matched(27,25) matched(22,26) matched(25,27) matched(24,28) matched(23,21) matched(29,30) matched(32,31) matched(31,32) matched(30,29) matched(39,34) matched(38,35) matched(33,36) matched(40,37) matched(35,38) matched(34,39) matched(37,40) matched(36,33) matched(47,42) matched(46,43) matched(41,44) matched(48,45) matched(43,46) matched(42,47) matched(45,48) matched(44,41) matched(52,50) matched(49,51) matched(50,52) matched(51,49) matched(59,54) matched(58,55) matched(53,56) matched(60,57) matched(55,58) matched(54,59) matched(57,60) matched(56,53) matched(4,1)
Optimization: 707
Answer: 9
matched(6,2) matched(1,3) matched(8,4) matched(7,5) matched(2,6) matched(5,7) matched(4,8) matched(9,10) matched(12,11) matched(11,12) matched(10,9) matched(13,14) matched(20,15) matched(19,16) matched(18,17) matched(17,18) matched(16,19) matched(15,20) matched(14,13) matched(21,22) matched(28,23) matched(27,24) matched(26,25) matched(25,26) matched(24,27) matched(23,28) matched(22,21) matched(29,30) matched(32,31) matched(31,32) matched(30,29) matched(39,34) matched(38,35) matched(33,36) matched(40,37) matched(35,38) matched(34,39) matched(37,40) matched(36,33) matched(47,42) matched(46,43) matched(41,44) matched(48,45) matched(43,46) matched(42,47) matched(45,48) matched(44,41) matched(52,50) matched(49,51) matched(50,52) matched(51,49) matched(59,54) matched(58,55) matched(53,56) matched(60,57) matched(55,58) matched(54,59) matched(57,60) matched(56,53) matched(3,1)
Optimization: 705
Answer: 10
matched(8,2) matched(6,3) matched(1,4) matched(7,5) matched(3,6) matched(5,7) matched(2,8) matched(9,10) matched(12,11) matched(11,12) matched(10,9) matched(13,14) matched(20,15) matched(19,16) matched(18,17) matched(17,18) matched(16,19) matched(15,20) matched(14,13) matched(21,22) matched(28,23) matched(27,24) matched(26,25) matched(25,26) matched(24,27) matched(23,28) matched(22,21) matched(29,30) matched(32,31) matched(31,32) matched(30,29) matched(39,34) matched(38,35) matched(33,36) matched(40,37) matched(35,38) matched(34,39) matched(37,40) matched(36,33) matched(47,42) matched(46,43) matched(41,44) matched(48,45) matched(43,46) matched(42,47) matched(45,48) matched(44,41) matched(52,50) matched(49,51) matched(50,52) matched(51,49) matched(59,54) matched(58,55) matched(53,56) matched(60,57) matched(55,58) matched(54,59) matched(57,60) matched(56,53) matched(4,1)
Optimization: 704
Answer: 11
matched(6,2) matched(1,3) matched(8,4) matched(7,5) matched(2,6) matched(5,7) matched(4,8) matched(9,10) matched(12,11) matched(11,12) matched(10,9) matched(13,14) matched(20,15) matched(19,16) matched(18,17) matched(17,18) matched(16,19) matched(15,20) matched(14,13) matched(27,22) matched(28,23) matched(21,24) matched(26,25) matched(25,26) matched(22,27) matched(23,28) matched(24,21) matched(29,30) matched(32,31) matched(31,32) matched(30,29) matched(39,34) matched(38,35) matched(33,36) matched(40,37) matched(35,38) matched(34,39) matched(37,40) matched(36,33) matched(47,42) matched(46,43) matched(41,44) matched(48,45) matched(43,46) matched(42,47) matched(45,48) matched(44,41) matched(52,50) matched(49,51) matched(50,52) matched(51,49) matched(59,54) matched(58,55) matched(53,56) matched(60,57) matched(55,58) matched(54,59) matched(57,60) matched(56,53) matched(3,1)
Optimization: 701
Answer: 12
matched(8,2) matched(6,3) matched(1,4) matched(7,5) matched(3,6) matched(5,7) matched(2,8) matched(9,10) matched(12,11) matched(11,12) matched(10,9) matched(13,14) matched(20,15) matched(19,16) matched(18,17) matched(17,18) matched(16,19) matched(15,20) matched(14,13) matched(27,22) matched(28,23) matched(21,24) matched(26,25) matched(25,26) matched(22,27) matched(23,28) matched(24,21) matched(29,30) matched(32,31) matched(31,32) matched(30,29) matched(39,34) matched(38,35) matched(33,36) matched(40,37) matched(35,38) matched(34,39) matched(37,40) matched(36,33) matched(47,42) matched(46,43) matched(41,44) matched(48,45) matched(43,46) matched(42,47) matched(45,48) matched(44,41) matched(52,50) matched(49,51) matched(50,52) matched(51,49) matched(59,54) matched(58,55) matched(53,56) matched(60,57) matched(55,58) matched(54,59) matched(57,60) matched(56,53) matched(4,1)
Optimization: 700
Answer: 13
matched(6,2) matched(1,3) matched(8,4) matched(7,5) matched(2,6) matched(5,7) matched(4,8) matched(9,10) matched(12,11) matched(11,12) matched(10,9) matched(19,14) matched(20,15) matched(13,16) matched(18,17) matched(17,18) matched(14,19) matched(15,20) matched(16,13) matched(28,22) matched(26,23) matched(21,24) matched(27,25) matched(23,26) matched(25,27) matched(22,28) matched(24,21) matched(29,30) matched(32,31) matched(31,32) matched(30,29) matched(39,34) matched(38,35) matched(33,36) matched(40,37) matched(35,38) matched(34,39) matched(37,40) matched(36,33) matched(47,42) matched(46,43) matched(41,44) matched(48,45) matched(43,46) matched(42,47) matched(45,48) matched(44,41) matched(52,50) matched(49,51) matched(50,52) matched(51,49) matched(59,54) matched(58,55) matched(53,56) matched(60,57) matched(55,58) matched(54,59) matched(57,60) matched(56,53) matched(3,1)
Optimization: 697
Answer: 14
matched(6,2) matched(1,3) matched(8,4) matched(7,5) matched(2,6) matched(5,7) matched(4,8) matched(9,10) matched(12,11) matched(11,12) matched(10,9) matched(19,14) matched(20,15) matched(13,16) matched(18,17) matched(17,18) matched(14,19) matched(15,20) matched(16,13) matched(27,22) matched(28,23) matched(21,24) matched(26,25) matched(25,26) matched(22,27) matched(23,28) matched(24,21) matched(29,30) matched(32,31) matched(31,32) matched(30,29) matched(39,34) matched(38,35) matched(33,36) matched(40,37) matched(35,38) matched(34,39) matched(37,40) matched(36,33) matched(47,42) matched(46,43) matched(41,44) matched(48,45) matched(43,46) matched(42,47) matched(45,48) matched(44,41) matched(52,50) matched(49,51) matched(50,52) matched(51,49) matched(59,54) matched(58,55) matched(53,56) matched(60,57) matched(55,58) matched(54,59) matched(57,60) matched(56,53) matched(3,1)
Optimization: 695
Answer: 15
matched(8,2) matched(6,3) matched(1,4) matched(7,5) matched(3,6) matched(5,7) matched(2,8) matched(9,10) matched(12,11) matched(11,12) matched(10,9) matched(19,14) matched(20,15) matched(13,16) matched(18,17) matched(17,18) matched(14,19) matched(15,20) matched(16,13) matched(27,22) matched(28,23) matched(21,24) matched(26,25) matched(25,26) matched(22,27) matched(23,28) matched(24,21) matched(29,30) matched(32,31) matched(31,32) matched(30,29) matched(39,34) matched(38,35) matched(33,36) matched(40,37) matched(35,38) matched(34,39) matched(37,40) matched(36,33) matched(47,42) matched(46,43) matched(41,44) matched(48,45) matched(43,46) matched(42,47) matched(45,48) matched(44,41) matched(52,50) matched(49,51) matched(50,52) matched(51,49) matched(59,54) matched(58,55) matched(53,56) matched(60,57) matched(55,58) matched(54,59) matched(57,60) matched(56,53) matched(4,1)
Optimization: 694
Answer: 16
matched(7,2) matched(6,3) matched(1,4) matched(8,5) matched(3,6) matched(2,7) matched(5,8) matched(9,10) matched(12,11) matched(11,12) matched(10,9) matched(19,14) matched(20,15) matched(13,16) matched(18,17) matched(17,18) matched(14,19) matched(15,20) matched(16,13) matched(27,22) matched(28,23) matched(21,24) matched(26,25) matched(25,26) matched(22,27) matched(23,28) matched(24,21) matched(29,30) matched(32,31) matched(31,32) matched(30,29) matched(39,34) matched(38,35) matched(33,36) matched(40,37) matched(35,38) matched(34,39) matched(37,40) matched(36,33) matched(47,42) matched(46,43) matched(41,44) matched(48,45) matched(43,46) matched(42,47) matched(45,48) matched(44,41) matched(52,50) matched(49,51) matched(50,52) matched(51,49) matched(59,54) matched(58,55) matched(53,56) matched(60,57) matched(55,58) matched(54,59) matched(57,60) matched(56,53) matched(4,1)
Optimization: 693
Answer: 17
matched(8,2) matched(6,3) matched(1,4) matched(7,5) matched(3,6) matched(5,7) matched(2,8) matched(9,10) matched(12,11) matched(11,12) matched(10,9) matched(13,14) matched(20,15) matched(19,16) matched(18,17) matched(17,18) matched(16,19) matched(15,20) matched(14,13) matched(26,22) matched(21,23) matched(28,24) matched(27,25) matched(22,26) matched(25,27) matched(24,28) matched(23,21) matched(29,30) matched(32,31) matched(31,32) matched(30,29) matched(39,34) matched(38,35) matched(33,36) matched(40,37) matched(35,38) matched(34,39) matched(37,40) matched(36,33) matched(47,42) matched(46,43) matched(41,44) matched(48,45) matched(43,46) matched(42,47) matched(45,48) matched(44,41) matched(49,50) matched(52,51) matched(51,52) matched(50,49) matched(59,54) matched(58,55) matched(53,56) matched(60,57) matched(55,58) matched(54,59) matched(57,60) matched(56,53) matched(4,1)
Optimization: 692
Answer: 18
matched(6,2) matched(1,3) matched(8,4) matched(7,5) matched(2,6) matched(5,7) matched(4,8) matched(9,10) matched(12,11) matched(11,12) matched(10,9) matched(13,14) matched(20,15) matched(19,16) matched(18,17) matched(17,18) matched(16,19) matched(15,20) matched(14,13) matched(28,22) matched(26,23) matched(21,24) matched(27,25) matched(23,26) matched(25,27) matched(22,28) matched(24,21) matched(29,30) matched(32,31) matched(31,32) matched(30,29) matched(39,34) matched(38,35) matched(33,36) matched(40,37) matched(35,38) matched(34,39) matched(37,40) matched(36,33) matched(47,42) matched(46,43) matched(41,44) matched(48,45) matched(43,46) matched(42,47) matched(45,48) matched(44,41) matched(49,50) matched(52,51) matched(51,52) matched(50,49) matched(59,54) matched(58,55) matched(53,56) matched(60,57) matched(55,58) matched(54,59) matched(57,60) matched(56,53) matched(3,1)
Optimization: 688
Answer: 19
matched(8,2) matched(6,3) matched(1,4) matched(7,5) matched(3,6) matched(5,7) matched(2,8) matched(9,10) matched(12,11) matched(11,12) matched(10,9) matched(13,14) matched(20,15) matched(19,16) matched(18,17) matched(17,18) matched(16,19) matched(15,20) matched(14,13) matched(28,22) matched(26,23) matched(21,24) matched(27,25) matched(23,26) matched(25,27) matched(22,28) matched(24,21) matched(29,30) matched(32,31) matched(31,32) matched(30,29) matched(39,34) matched(38,35) matched(33,36) matched(40,37) matched(35,38) matched(34,39) matched(37,40) matched(36,33) matched(47,42) matched(46,43) matched(41,44) matched(48,45) matched(43,46) matched(42,47) matched(45,48) matched(44,41) matched(49,50) matched(52,51) matched(51,52) matched(50,49) matched(59,54) matched(58,55) matched(53,56) matched(60,57) matched(55,58) matched(54,59) matched(57,60) matched(56,53) matched(4,1)
Optimization: 687
Answer: 20
matched(6,2) matched(1,3) matched(8,4) matched(7,5) matched(2,6) matched(5,7) matched(4,8) matched(9,10) matched(12,11) matched(11,12) matched(10,9) matched(13,14) matched(20,15) matched(19,16) matched(18,17) matched(17,18) matched(16,19) matched(15,20) matched(14,13) matched(27,22) matched(28,23) matched(21,24) matched(26,25) matched(25,26) matched(22,27) matched(23,28) matched(24,21) matched(29,30) matched(32,31) matched(31,32) matched(30,29) matched(39,34) matched(38,35) matched(33,36) matched(40,37) matched(35,38) matched(34,39) matched(37,40) matched(36,33) matched(47,42) matched(46,43) matched(41,44) matched(48,45) matched(43,46) matched(42,47) matched(45,48) matched(44,41) matched(49,50) matched(52,51) matched(51,52) matched(50,49) matched(59,54) matched(58,55) matched(53,56) matched(60,57) matched(55,58) matched(54,59) matched(57,60) matched(56,53) matched(3,1)
Optimization: 686
Answer: 21
matched(8,2) matched(6,3) matched(1,4) matched(7,5) matched(3,6) matched(5,7) matched(2,8) matched(9,10) matched(12,11) matched(11,12) matched(10,9) matched(13,14) matched(20,15) matched(19,16) matched(18,17) matched(17,18) matched(16,19) matched(15,20) matched(14,13) matched(27,22) matched(28,23) matched(21,24) matched(26,25) matched(25,26) matched(22,27) matched(23,28) matched(24,21) matched(29,30) matched(32,31) matched(31,32) matched(30,29) matched(39,34) matched(38,35) matched(33,36) matched(40,37) matched(35,38) matched(34,39) matched(37,40) matched(36,33) matched(47,42) matched(46,43) matched(41,44) matched(48,45) matched(43,46) matched(42,47) matched(45,48) matched(44,41) matched(49,50) matched(52,51) matched(51,52) matched(50,49) matched(59,54) matched(58,55) matched(53,56) matched(60,57) matched(55,58) matched(54,59) matched(57,60) matched(56,53) matched(4,1)
Optimization: 685
Answer: 22
matched(7,2) matched(6,3) matched(1,4) matched(8,5) matched(3,6) matched(2,7) matched(5,8) matched(9,10) matched(12,11) matched(11,12) matched(10,9) matched(13,14) matched(20,15) matched(19,16) matched(18,17) matched(17,18) matched(16,19) matched(15,20) matched(14,13) matched(27,22) matched(28,23) matched(21,24) matched(26,25) matched(25,26) matched(22,27) matched(23,28) matched(24,21) matched(29,30) matched(32,31) matched(31,32) matched(30,29) matched(39,34) matched(38,35) matched(33,36) matched(40,37) matched(35,38) matched(34,39) matched(37,40) matched(36,33) matched(47,42) matched(46,43) matched(41,44) matched(48,45) matched(43,46) matched(42,47) matched(45,48) matched(44,41) matched(49,50) matched(52,51) matched(51,52) matched(50,49) matched(59,54) matched(58,55) matched(53,56) matched(60,57) matched(55,58) matched(54,59) matched(57,60) matched(56,53) matched(4,1)
Optimization: 684
Answer: 23
matched(6,2) matched(1,3) matched(8,4) matched(7,5) matched(2,6) matched(5,7) matched(4,8) matched(9,10) matched(12,11) matched(11,12) matched(10,9) matched(19,14) matched(20,15) matched(13,16) matched(18,17) matched(17,18) matched(14,19) matched(15,20) matched(16,13) matched(28,22) matched(26,23) matched(21,24) matched(27,25) matched(23,26) matched(25,27) matched(22,28) matched(24,21) matched(29,30) matched(32,31) matched(31,32) matched(30,29) matched(39,34) matched(38,35) matched(33,36) matched(40,37) matched(35,38) matched(34,39) matched(37,40) matched(36,33) matched(47,42) matched(46,43) matched(41,44) matched(48,45) matched(43,46) matched(42,47) matched(45,48) matched(44,41) matched(49,50) matched(52,51) matched(51,52) matched(50,49) matched(59,54) matched(58,55) matched(53,56) matched(60,57) matched(55,58) matched(54,59) matched(57,60) matched(56,53) matched(3,1)
Optimization: 682
Answer: 24
matched(8,2) matched(6,3) matched(1,4) matched(7,5) matched(3,6) matched(5,7) matched(2,8) matched(9,10) matched(12,11) matched(11,12) matched(10,9) matched(19,14) matched(20,15) matched(13,16) matched(18,17) matched(17,18) matched(14,19) matched(15,20) matched(16,13) matched(28,22) matched(26,23) matched(21,24) matched(27,25) matched(23,26) matched(25,27) matched(22,28) matched(24,21) matched(29,30) matched(32,31) matched(31,32) matched(30,29) matched(39,34) matched(38,35) matched(33,36) matched(40,37) matched(35,38) matched(34,39) matched(37,40) matched(36,33) matched(47,42) matched(46,43) matched(41,44) matched(48,45) matched(43,46) matched(42,47) matched(45,48) matched(44,41) matched(49,50) matched(52,51) matched(51,52) matched(50,49) matched(59,54) matched(58,55) matched(53,56) matched(60,57) matched(55,58) matched(54,59) matched(57,60) matched(56,53) matched(4,1)
Optimization: 681
Answer: 25
matched(7,2) matched(6,3) matched(1,4) matched(8,5) matched(3,6) matched(2,7) matched(5,8) matched(9,10) matched(12,11) matched(11,12) matched(10,9) matched(19,14) matched(20,15) matched(13,16) matched(18,17) matched(17,18) matched(14,19) matched(15,20) matched(16,13) matched(28,22) matched(26,23) matched(21,24) matched(27,25) matched(23,26) matched(25,27) matched(22,28) matched(24,21) matched(29,30) matched(32,31) matched(31,32) matched(30,29) matched(39,34) matched(38,35) matched(33,36) matched(40,37) matched(35,38) matched(34,39) matched(37,40) matched(36,33) matched(47,42) matched(46,43) matched(41,44) matched(48,45) matched(43,46) matched(42,47) matched(45,48) matched(44,41) matched(49,50) matched(52,51) matched(51,52) matched(50,49) matched(59,54) matched(58,55) matched(53,56) matched(60,57) matched(55,58) matched(54,59) matched(57,60) matched(56,53) matched(4,1)
Optimization: 680
Answer: 26
matched(1,2) matched(6,3) matched(7,4) matched(8,5) matched(3,6) matched(4,7) matched(5,8) matched(9,10) matched(12,11) matched(11,12) matched(10,9) matched(19,14) matched(20,15) matched(13,16) matched(18,17) matched(17,18) matched(14,19) matched(15,20) matched(16,13) matched(27,22) matched(28,23) matched(21,24) matched(26,25) matched(25,26) matched(22,27) matched(23,28) matched(24,21) matched(29,30) matched(32,31) matched(31,32) matched(30,29) matched(39,34) matched(38,35) matched(33,36) matched(40,37) matched(35,38) matched(34,39) matched(37,40) matched(36,33) matched(47,42) matched(46,43) matched(41,44) matched(48,45) matched(43,46) matched(42,47) matched(45,48) matched(44,41) matched(49,50) matched(52,51) matched(51,52) matched(50,49) matched(59,54) matched(58,55) matched(53,56) matched(60,57) matched(55,58) matched(54,59) matched(57,60) matched(56,53) matched(2,1)
Optimization: 679
Answer: 27
matched(7,2) matched(6,3) matched(1,4) matched(8,5) matched(3,6) matched(2,7) matched(5,8) matched(9,10) matched(12,11) matched(11,12) matched(10,9) matched(19,14) matched(20,15) matched(13,16) matched(18,17) matched(17,18) matched(14,19) matched(15,20) matched(16,13) matched(27,22) matched(28,23) matched(21,24) matched(26,25) matched(25,26) matched(22,27) matched(23,28) matched(24,21) matched(29,30) matched(32,31) matched(31,32) matched(30,29) matched(39,34) matched(38,35) matched(33,36) matched(40,37) matched(35,38) matched(34,39) matched(37,40) matched(36,33) matched(47,42) matched(46,43) matched(41,44) matched(48,45) matched(43,46) matched(42,47) matched(45,48) matched(44,41) matched(49,50) matched(52,51) matched(51,52) matched(50,49) matched(59,54) matched(58,55) matched(53,56) matched(60,57) matched(55,58) matched(54,59) matched(57,60) matched(56,53) matched(4,1)
Optimization: 678
Answer: 28
matched(7,2) matched(6,3) matched(1,4) matched(8,5) matched(3,6) matched(2,7) matched(5,8) matched(9,10) matched(12,11) matched(11,12) matched(10,9) matched(19,14) matched(20,15) matched(13,16) matched(18,17) matched(17,18) matched(14,19) matched(15,20) matched(16,13) matched(28,22) matched(26,23) matched(21,24) matched(27,25) matched(23,26) matched(25,27) matched(22,28) matched(24,21) matched(32,30) matched(29,31) matched(30,32) matched(31,29) matched(39,34) matched(38,35) matched(33,36) matched(40,37) matched(35,38) matched(34,39) matched(37,40) matched(36,33) matched(47,42) matched(46,43) matched(41,44) matched(48,45) matched(43,46) matched(42,47) matched(45,48) matched(44,41) matched(49,50) matched(52,51) matched(51,52) matched(50,49) matched(59,54) matched(58,55) matched(53,56) matched(60,57) matched(55,58) matched(54,59) matched(57,60) matched(56,53) matched(4,1)
Optimization: 677
Answer: 29
matched(8,2) matched(6,3) matched(1,4) matched(7,5) matched(3,6) matched(5,7) matched(2,8) matched(9,10) matched(12,11) matched(11,12) matched(10,9) matched(19,14) matched(20,15) matched(13,16) matched(18,17) matched(17,18) matched(14,19) matched(15,20) matched(16,13) matched(27,22) matched(28,23) matched(21,24) matched(26,25) matched(25,26) matched(22,27) matched(23,28) matched(24,21) matched(32,30) matched(29,31) matched(30,32) matched(31,29) matched(39,34) matched(38,35) matched(33,36) matched(40,37) matched(35,38) matched(34,39) matched(37,40) matched(36,33) matched(47,42) matched(46,43) matched(41,44) matched(48,45) matched(43,46) matched(42,47) matched(45,48) matched(44,41) matched(49,50) matched(52,51) matched(51,52) matched(50,49) matched(59,54) matched(58,55) matched(53,56) matched(60,57) matched(55,58) matched(54,59) matched(57,60) matched(56,53) matched(4,1)
Optimization: 676
Answer: 30
matched(7,2) matched(6,3) matched(1,4) matched(8,5) matched(3,6) matched(2,7) matched(5,8) matched(9,10) matched(12,11) matched(11,12) matched(10,9) matched(19,14) matched(20,15) matched(13,16) matched(18,17) matched(17,18) matched(14,19) matched(15,20) matched(16,13) matched(27,22) matched(28,23) matched(21,24) matched(26,25) matched(25,26) matched(22,27) matched(23,28) matched(24,21) matched(32,30) matched(29,31) matched(30,32) matched(31,29) matched(39,34) matched(38,35) matched(33,36) matched(40,37) matched(35,38) matched(34,39) matched(37,40) matched(36,33) matched(47,42) matched(46,43) matched(41,44) matched(48,45) matched(43,46) matched(42,47) matched(45,48) matched(44,41) matched(49,50) matched(52,51) matched(51,52) matched(50,49) matched(59,54) matched(58,55) matched(53,56) matched(60,57) matched(55,58) matched(54,59) matched(57,60) matched(56,53) matched(4,1)
Optimization: 675
OPTIMUM FOUND

Models       : 30
  Optimum    : yes
Optimization : 675
Calls        : 1
Time         : 20.943s (Solving: 7.21s 1st Model: 0.00s Unsat: 4.58s)
CPU Time     : 18.798s
